p cnf 11 20
-11 -10 9 0
-11 9 -3 0
-11 7 -5 0
-11 -6 -5 0
11 -6 2 0
11 -5 -2 0
10 -9 -6 0
10 5 1 0
-9 -8 -4 0
-9 5 2 0
8 7 -6 0
8 -7 -6 0
8 -7 -3 0
-8 -5 -4 0
8 5 3 0
-7 -5 -2 0
7 4 3 0
-6 4 1 0
-4 2 -1 0
3 -2 1 0
